c File: rg100_0.1.col
c 
c This is a randomly generated graph G(n, p) where: 
c n (num vertices): 100
c p (edge probability): 0.1
c 
c Graph Properties: 
c Order: 100
c Size: 509
c Density: 0.10282828
c Maximum Degree: 19
c Minimum Degree: 2
c Average Degree: 10.18
c 
p edge 100 509
e 1 5
e 1 9
e 1 10
e 1 16
e 1 21
e 1 36
e 1 37
e 1 42
e 1 80
e 1 81
e 1 89
e 1 94
e 1 96
e 2 6
e 2 7
e 2 32
e 2 34
e 2 36
e 2 37
e 2 53
e 2 59
e 2 66
e 2 68
e 2 72
e 2 99
e 3 7
e 3 11
e 3 19
e 3 27
e 3 30
e 3 32
e 3 33
e 3 44
e 3 76
e 3 90
e 3 93
e 4 10
e 4 11
e 4 15
e 4 19
e 4 22
e 4 36
e 4 37
e 4 44
e 4 56
e 4 66
e 4 68
e 4 75
e 4 99
e 5 35
e 5 36
e 5 56
e 5 84
e 5 99
e 6 10
e 6 19
e 6 24
e 6 33
e 6 46
e 6 62
e 6 65
e 6 67
e 6 71
e 6 76
e 6 83
e 6 84
e 6 100
e 7 11
e 7 20
e 7 38
e 7 41
e 7 52
e 7 57
e 7 59
e 7 64
e 7 68
e 7 100
e 8 25
e 8 27
e 8 32
e 8 36
e 8 40
e 8 50
e 8 55
e 8 59
e 8 67
e 8 73
e 8 84
e 8 86
e 9 23
e 9 39
e 9 42
e 9 60
e 9 70
e 9 86
e 9 99
e 9 100
e 10 12
e 10 17
e 10 18
e 10 32
e 10 35
e 10 51
e 10 56
e 10 67
e 10 79
e 10 84
e 10 91
e 10 94
e 11 12
e 11 17
e 11 23
e 11 35
e 11 44
e 11 45
e 11 64
e 11 65
e 11 66
e 11 70
e 11 73
e 12 17
e 12 25
e 12 31
e 12 33
e 12 35
e 12 52
e 12 64
e 12 79
e 12 84
e 12 93
e 12 99
e 13 30
e 13 36
e 13 61
e 13 70
e 13 84
e 13 86
e 13 95
e 14 36
e 14 43
e 15 36
e 15 43
e 15 45
e 15 48
e 15 58
e 15 78
e 15 96
e 15 98
e 15 100
e 16 18
e 16 30
e 16 41
e 16 65
e 17 21
e 17 24
e 17 31
e 17 37
e 17 51
e 17 80
e 18 20
e 18 28
e 18 73
e 18 91
e 19 20
e 19 23
e 19 31
e 19 35
e 19 47
e 19 48
e 19 66
e 19 72
e 19 97
e 20 25
e 20 45
e 20 54
e 20 58
e 20 73
e 20 76
e 20 83
e 20 94
e 20 99
e 21 29
e 21 31
e 21 48
e 21 54
e 21 56
e 21 59
e 21 63
e 21 67
e 21 95
e 22 30
e 22 31
e 22 38
e 22 58
e 22 79
e 22 90
e 22 96
e 23 30
e 23 32
e 23 44
e 23 49
e 23 50
e 23 65
e 23 78
e 23 81
e 23 85
e 23 92
e 24 28
e 24 51
e 24 64
e 24 72
e 24 80
e 24 92
e 25 30
e 25 43
e 25 48
e 25 74
e 25 91
e 26 38
e 26 39
e 26 51
e 26 62
e 26 65
e 26 77
e 26 86
e 27 29
e 27 30
e 27 35
e 27 61
e 27 68
e 27 69
e 27 75
e 27 90
e 28 39
e 28 46
e 28 59
e 28 73
e 28 83
e 28 88
e 29 32
e 29 37
e 29 44
e 29 82
e 30 35
e 30 41
e 30 45
e 30 46
e 30 53
e 30 54
e 30 61
e 30 65
e 30 67
e 30 70
e 30 87
e 30 88
e 31 41
e 31 47
e 31 64
e 31 73
e 31 80
e 31 86
e 31 95
e 32 37
e 32 45
e 32 57
e 32 58
e 32 99
e 33 48
e 33 54
e 33 64
e 33 73
e 33 74
e 33 83
e 33 93
e 33 94
e 34 36
e 34 47
e 34 63
e 34 67
e 34 81
e 34 94
e 35 39
e 35 40
e 35 53
e 35 55
e 35 58
e 35 61
e 35 66
e 35 88
e 35 90
e 35 99
e 36 39
e 36 51
e 36 59
e 36 71
e 36 77
e 36 86
e 37 44
e 37 61
e 37 71
e 37 84
e 37 88
e 37 90
e 37 96
e 37 99
e 38 67
e 38 81
e 38 94
e 38 97
e 39 44
e 39 51
e 39 52
e 39 55
e 39 62
e 39 63
e 39 78
e 39 79
e 39 85
e 39 94
e 40 51
e 40 53
e 40 54
e 40 65
e 40 87
e 40 94
e 41 52
e 41 66
e 41 75
e 42 43
e 42 46
e 42 56
e 42 67
e 42 74
e 42 82
e 43 47
e 43 68
e 43 82
e 43 86
e 44 46
e 44 61
e 44 67
e 44 68
e 44 71
e 44 83
e 44 87
e 44 89
e 44 91
e 44 98
e 45 46
e 45 48
e 45 56
e 45 69
e 45 87
e 45 89
e 45 92
e 46 65
e 46 68
e 46 70
e 46 74
e 46 79
e 46 91
e 46 92
e 46 95
e 46 96
e 47 49
e 47 51
e 47 66
e 47 70
e 47 73
e 48 49
e 48 58
e 48 62
e 48 65
e 48 78
e 48 79
e 48 86
e 48 87
e 49 74
e 49 85
e 49 90
e 49 97
e 49 99
e 50 55
e 50 56
e 50 74
e 50 78
e 50 85
e 50 91
e 50 96
e 51 57
e 51 59
e 51 74
e 51 92
e 51 95
e 52 71
e 52 82
e 52 86
e 52 91
e 52 94
e 53 66
e 53 71
e 53 75
e 53 92
e 54 65
e 54 67
e 54 76
e 54 77
e 54 84
e 54 87
e 54 98
e 54 99
e 55 66
e 55 74
e 55 90
e 55 98
e 56 61
e 56 68
e 56 71
e 56 74
e 56 78
e 56 82
e 56 93
e 57 60
e 57 84
e 57 91
e 57 96
e 57 100
e 58 72
e 59 63
e 59 65
e 59 66
e 59 70
e 59 80
e 60 70
e 60 78
e 60 82
e 60 85
e 60 90
e 60 95
e 60 100
e 61 68
e 61 70
e 61 84
e 61 96
e 63 64
e 63 71
e 63 89
e 64 70
e 64 74
e 64 81
e 65 98
e 66 68
e 66 83
e 66 97
e 66 99
e 67 75
e 67 76
e 67 79
e 68 80
e 69 71
e 69 73
e 69 81
e 69 82
e 69 98
e 70 74
e 70 78
e 70 95
e 70 97
e 70 98
e 70 100
e 71 91
e 71 98
e 72 74
e 72 81
e 72 97
e 73 75
e 73 77
e 73 81
e 73 93
e 74 77
e 74 95
e 75 85
e 75 94
e 75 97
e 77 94
e 78 87
e 78 95
e 79 96
e 80 90
e 80 98
e 81 93
e 81 94
e 81 97
e 82 85
e 83 87
e 83 92
e 83 97
e 85 90
e 86 88
e 87 88
e 87 90
e 87 93
e 88 93
e 89 91
e 89 95
e 92 95
e 93 99
e 98 99
e 98 100
